words_easy_train/words_824_SAT.qaiger
aag 105 16 0 1 89
16
18
6
22
28
30
32
12
20
2
26
24
4
10
8
14
211
34 21 19
36 34 23
38 36 25
40 38 27
42 40 29
44 41 28
46 45 43
48 20 18
50 35 22
52 50 49
54 49 35
56 51 37
58 56 55
60 59 53
62 54 19
64 62 61
66 37 24
68 67 39
70 57 53
72 70 69
74 71 68
76 75 73
78 76 64
80 39 26
82 81 41
84 83 72
86 82 73
88 87 85
90 88 78
92 90 47
94 84 47
96 42 31
98 43 30
100 99 97
102 101 94
104 100 95
106 105 103
108 107 92
110 106 93
112 111 109
114 112 15
116 113 14
118 95 93
120 85 46
122 120 91
124 123 118
126 125 13
128 124 12
130 89 79
132 131 91
134 133 11
136 132 10
138 77 65
140 139 79
142 141 9
144 140 8
146 21 4
148 20 5
150 18 2
152 150 149
154 153 147
156 155 6
158 154 7
160 63 60
162 161 65
164 162 159
166 165 157
168 166 145
170 169 143
172 171 137
174 173 135
176 175 129
178 177 127
180 179 117
182 181 115
184 105 92
186 185 103
188 33 17
190 32 16
192 191 189
194 192 96
196 193 97
198 197 195
200 199 186
202 198 187
204 203 201
206 205 183
208 204 182
210 209 207
i0 1 x2[7]
i1 2 y2[0]
i2 1 x2[2]
i3 2 y2[2]
i4 2 y2[5]
i5 2 y2[6]
i6 2 y2[7]
i7 1 x2[5]
i8 2 y2[1]
i9 1 x2[0]
i10 2 y2[4]
i11 2 y2[3]
i12 1 x2[1]
i13 1 x2[4]
i14 1 x2[3]
i15 1 x2[6]
o0 bv[0]
c
simplified
  >=
    1 x2
    subtract
      invert
        1
      2 y2
