words_easy_train/words_824_SAT.qaiger.qdimacs
p cnf 105 268
a 1 2 3 4 5 6 7 8 0
e 9 10 11 12 13 14 15 16 17 18 19 20 21 22 23 24 25 26 27 28 29 30 31 32 33 34 35 36 37 38 39 40 41 42 43 44 45 46 47 48 49 50 51 52 53 54 55 56 57 58 59 60 61 62 63 64 65 66 67 68 69 70 71 72 73 74 75 76 77 78 79 80 81 82 83 84 85 86 87 88 89 90 91 92 93 94 95 96 97 98 99 100 101 102 103 104 105 0
10 9 17 0
-10 -17 0
-9 -17 0
-17 11 18 0
17 -18 0
-11 -18 0
-18 12 19 0
18 -19 0
-12 -19 0
-19 13 20 0
19 -20 0
-13 -20 0
-20 14 21 0
20 -21 0
-14 -21 0
20 -14 22 0
-20 -22 0
14 -22 0
22 21 23 0
-22 -23 0
-21 -23 0
-10 -9 24 0
10 -24 0
9 -24 0
17 -11 25 0
-17 -25 0
11 -25 0
-25 24 26 0
25 -26 0
-24 -26 0
24 17 27 0
-24 -27 0
-17 -27 0
25 18 28 0
-25 -28 0
-18 -28 0
-28 27 29 0
28 -29 0
-27 -29 0
29 26 30 0
-29 -30 0
-26 -30 0
-27 9 31 0
27 -31 0
-9 -31 0
-31 30 32 0
31 -32 0
-30 -32 0
18 -12 33 0
-18 -33 0
12 -33 0
33 19 34 0
-33 -34 0
-19 -34 0
28 26 35 0
-28 -35 0
-26 -35 0
-35 34 36 0
35 -36 0
-34 -36 0
35 -34 37 0
-35 -37 0
34 -37 0
37 36 38 0
-37 -38 0
-36 -38 0
-38 -32 39 0
38 -39 0
32 -39 0
19 -13 40 0
-19 -40 0
13 -40 0
40 20 41 0
-40 -41 0
-20 -41 0
41 -36 42 0
-41 -42 0
36 -42 0
-41 36 43 0
41 -43 0
-36 -43 0
43 42 44 0
-43 -44 0
-42 -44 0
-44 -39 45 0
44 -45 0
39 -45 0
-45 23 46 0
45 -46 0
-23 -46 0
-42 23 47 0
42 -47 0
-23 -47 0
-21 15 48 0
21 -48 0
-15 -48 0
21 -15 49 0
-21 -49 0
15 -49 0
49 48 50 0
-49 -50 0
-48 -50 0
50 -47 51 0
-50 -51 0
47 -51 0
-50 47 52 0
50 -52 0
-47 -52 0
52 51 53 0
-52 -53 0
-51 -53 0
53 -46 54 0
-53 -54 0
46 -54 0
-53 46 55 0
53 -55 0
-46 -55 0
55 54 56 0
-55 -56 0
-54 -56 0
-56 7 57 0
56 -57 0
-7 -57 0
56 -7 58 0
-56 -58 0
7 -58 0
47 46 59 0
-47 -59 0
-46 -59 0
42 -23 60 0
-42 -60 0
23 -60 0
-60 45 61 0
60 -61 0
-45 -61 0
61 -59 62 0
-61 -62 0
59 -62 0
62 6 63 0
-62 -63 0
-6 -63 0
-62 -6 64 0
62 -64 0
6 -64 0
44 39 65 0
-44 -65 0
-39 -65 0
65 45 66 0
-65 -66 0
-45 -66 0
66 5 67 0
-66 -67 0
-5 -67 0
-66 -5 68 0
66 -68 0
5 -68 0
38 32 69 0
-38 -69 0
-32 -69 0
69 39 70 0
-69 -70 0
-39 -70 0
70 4 71 0
-70 -71 0
-4 -71 0
-70 -4 72 0
70 -72 0
4 -72 0
10 -2 73 0
-10 -73 0
2 -73 0
-10 2 74 0
10 -74 0
-2 -74 0
-9 -1 75 0
9 -75 0
1 -75 0
-75 74 76 0
75 -76 0
-74 -76 0
76 73 77 0
-76 -77 0
-73 -77 0
77 -3 78 0
-77 -78 0
3 -78 0
-77 3 79 0
77 -79 0
-3 -79 0
31 -30 80 0
-31 -80 0
30 -80 0
80 32 81 0
-80 -81 0
-32 -81 0
-81 79 82 0
81 -82 0
-79 -82 0
82 78 83 0
-82 -83 0
-78 -83 0
-83 72 84 0
83 -84 0
-72 -84 0
84 71 85 0
-84 -85 0
-71 -85 0
85 68 86 0
-85 -86 0
-68 -86 0
86 67 87 0
-86 -87 0
-67 -87 0
87 64 88 0
-87 -88 0
-64 -88 0
88 63 89 0
-88 -89 0
-63 -89 0
89 58 90 0
-89 -90 0
-58 -90 0
90 57 91 0
-90 -91 0
-57 -91 0
52 -46 92 0
-52 -92 0
46 -92 0
92 51 93 0
-92 -93 0
-51 -93 0
16 8 94 0
-16 -94 0
-8 -94 0
-16 -8 95 0
16 -95 0
8 -95 0
95 94 96 0
-95 -96 0
-94 -96 0
-96 -48 97 0
96 -97 0
48 -97 0
96 48 98 0
-96 -98 0
-48 -98 0
98 97 99 0
-98 -99 0
-97 -99 0
99 -93 100 0
-99 -100 0
93 -100 0
-99 93 101 0
99 -101 0
-93 -101 0
101 100 102 0
-101 -102 0
-100 -102 0
102 91 103 0
-102 -103 0
-91 -103 0
-102 -91 104 0
102 -104 0
91 -104 0
104 103 105 0
-104 -105 0
-103 -105 0
-105 0
